function string: get_day(days: d) = 
    if d = 1    then "08/05/2023"
    elseif d= 2 then "09/05/2023" 
    elseif d= 3 then "10/05/2023" 
    elseif d= 4 then "11/05/2023" 
    elseif d= 5 then "12/05/2023" 
    elseif d= 6 then "13/05/2023" 
    elseif d= 7 then "14/05/2023" 
    elseif d= 8 then "15/05/2023" 
    elseif d= 9 then "16/05/2023" 
    elseif d= 10 then "17/05/2023" 
    elseif d= 11 then "18/05/2023" 
    elseif d= 12 then "19/05/2023" 
    elseif d= 13 then "20/05/2023" 
    elseif d= 14 then "21/05/2023" 
    elseif d= 15 then "22/05/2023" 
    elseif d= 16 then "23/05/2023" 
    elseif d= 17 then "24/05/2023" 
    elseif d= 18 then "25/05/2023" 
    elseif d= 19 then "26/05/2023" 
    elseif d= 20 then "27/05/2023" 
    elseif d= 21 then "28/05/2023" 
    elseif d= 22 then "29/05/2023" 
    elseif d= 23 then "30/05/2023" 
    elseif d= 24 then "31/05/2023" 
    elseif d= 25 then "01/06/2023" 
    elseif d= 26 then "02/06/2023" 
    elseif d= 27 then "03/06/2023" 
    elseif d= 28 then "04/06/2023" 
    elseif d= 29 then "05/06/2023" 
    elseif d= 30 then "06/06/2023" 
    elseif d= 31 then "07/06/2023" 
    elseif d= 32 then "08/06/2023" 
    elseif d= 33 then "09/06/2023" 
    elseif d= 34 then "10/06/2023" 
    elseif d= 35 then "11/06/2023" 
    elseif d= 36 then "12/06/2023" 
    elseif d= 37 then "13/06/2023" 
    elseif d= 38 then "14/06/2023" 
    elseif d= 39 then "15/06/2023" 
    elseif d= 40 then "16/06/2023" 
    elseif d= 41 then "17/06/2023" 
    elseif d= 42 then "18/06/2023" 
    elseif d= 43 then "19/06/2023" 
    elseif d= 44 then "20/06/2023" 
    elseif d= 45 then "21/06/2023" 
    elseif d= 46 then "22/06/2023" 
    elseif d= 47 then "23/06/2023" 
    elseif d= 48 then "24/06/2023" 
    elseif d= 49 then "25/06/2023" 
    elseif d= 50 then "26/06/2023" 
    elseif d= 51 then "27/06/2023" 
    elseif d= 52 then "28/06/2023" 
    elseif d= 53 then "29/06/2023" 
    elseif d= 54 then "30/06/2023" 
    elseif d= 55 then "01/07/2023" 
    elseif d= 56 then "02/07/2023" 
    elseif d= 57 then "03/07/2023" 
    elseif d= 58 then "04/07/2023" 
    elseif d= 59 then "05/07/2023" 
    elseif d= 60 then "06/07/2023" 
    elseif d= 61 then "07/07/2023" 
    elseif d= 62 then "08/07/2023" 
    elseif d= 63 then "09/07/2023" 
    elseif d= 64 then "10/07/2023" 
    elseif d= 65 then "11/07/2023" 
    elseif d= 66 then "12/07/2023" 
    elseif d= 67 then "13/07/2023" 
    elseif d= 68 then "14/07/2023" 
    elseif d= 69 then "15/07/2023" 
    elseif d= 70 then "16/07/2023" 
    elseif d= 71 then "17/07/2023" 
    elseif d= 72 then "18/07/2023" 
    elseif d= 73 then "19/07/2023" 
    elseif d= 74 then "20/07/2023" 
    elseif d= 75 then "21/07/2023" 
    elseif d= 76 then "22/07/2023" 
    elseif d= 77 then "23/07/2023" 
    elseif d= 78 then "24/07/2023" 
    elseif d= 79 then "25/07/2023" 
    elseif d= 80 then "26/07/2023" 
    elseif d= 81 then "27/07/2023" 
    elseif d= 82 then "28/07/2023" 
    elseif d= 83 then "29/07/2023" 
    elseif d= 84 then "30/07/2023" 
    elseif d= 85 then "31/07/2023" 
    elseif d= 86 then "01/08/2023" 
    elseif d= 87 then "02/08/2023" 
    elseif d= 88 then "03/08/2023" 
    elseif d= 89 then "04/08/2023" 
    elseif d= 90 then "05/08/2023" 
    elseif d= 91 then "06/08/2023" 
 else "nuffin"
 endif; % end of the big if